db/data/16226262592984378381960613595334414236.z3.out
sat
-------------------
4.253129433
